<instance format="XCSP3" type="COP">
  <variables>
    <var id="lucy"> 1..3 </var>
    <var id="mary"> 1..3 </var>
    <var id="paul"> 1..3 </var>
    <var id="z1"> 0 3 </var>
    <var id="z2"> 0 2 </var>
   </variables>
  <constraints>
    <allDifferent> lucy mary paul </allDifferent>
    <intension type="soft" violationCost="3"> 
      <function> eq(lucy,sub(mary,1)) </function>
      <cost> z1 </cost>
    </intension>
    <intension type="soft" violationCost="2"> 
      <function> eq(paul,sub(mary,1)) </function>
      <cost> z2 </cost>
    </intension>
  </constraints>
  <objectives>
    <minimize type="sum"> z1 z2 </minimize>
  </objectives>
</instance>
